100
100
80
80
80
79
78
77
76
76
75
74
72
72
71
71
70
70
68
68
66
66
65
65
65
65
64
64
64
63
62
62
62
62
61
59
59
58
57
56
55
55
53
52
52
50
50
49
48
48
47
46
44
44
44
42
42
42
42
41
40
40
40
40
37
37
37
36
36
33
33
31
29
28
27
27
26
26
25
24
22
22
21
20
20
20
18
18
17
17
16
16
15
14
14
13
13
13
13
13
12
10
